784 1512
1 2 2
1 29 1
2 3 5
2 30 2
3 4 2
3 31 5
4 5 4
4 32 4
5 6 2
5 33 4
6 7 1
6 34 3
7 8 3
7 35 3
8 9 3
8 36 4
9 10 3
9 37 5
10 11 3
10 38 4
11 12 1
11 39 3
12 13 4
12 40 1
13 14 2
13 41 3
14 15 4
14 42 5
15 16 4
15 43 4
16 17 5
16 44 4
17 18 4
17 45 4
18 19 2
18 46 3
19 20 3
19 47 5
20 21 3
20 48 4
21 22 2
21 49 2
22 23 3
22 50 5
23 24 2
23 51 3
24 25 3
24 52 2
25 26 1
25 53 1
26 27 4
26 54 5
27 28 3
27 55 1
28 56 3
29 30 2
29 57 5
30 31 3
30 58 5
31 32 1
31 59 5
32 33 2
32 60 1
33 34 1
33 61 2
34 35 3
34 62 1
35 36 1
35 63 1
36 37 4
36 64 2
37 38 1
37 65 2
38 39 1
38 66 5
39 40 1
39 67 2
40 41 5
40 68 1
41 42 2
41 69 4
42 43 3
42 70 5
43 44 3
43 71 5
44 45 1
44 72 3
45 46 2
45 73 3
46 47 2
46 74 1
47 48 5
47 75 4
48 49 3
48 76 4
49 50 4
49 77 3
50 51 4
50 78 1
51 52 4
51 79 1
52 53 5
52 80 3
53 54 3
53 81 2
54 55 5
54 82 4
55 56 5
55 83 1
56 84 4
57 58 5
57 85 2
58 59 4
58 86 5
59 60 5
59 87 5
60 61 5
60 88 3
61 62 5
61 89 3
62 63 1
62 90 4
63 64 1
63 91 3
64 65 3
64 92 4
65 66 4
65 93 1
66 67 2
66 94 2
67 68 3
67 95 1
68 69 2
68 96 3
69 70 5
69 97 5
70 71 5
70 98 4
71 72 5
71 99 5
72 73 4
72 100 2
73 74 2
73 101 3
74 75 2
74 102 1
75 76 5
75 103 2
76 77 4
76 104 4
77 78 2
77 105 5
78 79 4
78 106 3
79 80 2
79 107 4
80 81 1
80 108 2
81 82 5
81 109 3
82 83 4
82 110 2
83 84 3
83 111 4
84 112 5
85 86 1
85 113 5
86 87 5
86 114 4
87 88 3
87 115 2
88 89 5
88 116 1
89 90 1
89 117 3
90 91 2
90 118 3
91 92 2
91 119 1
92 93 4
92 120 1
93 94 3
93 121 2
94 95 5
94 122 3
95 96 1
95 123 3
96 97 4
96 124 2
97 98 2
97 125 4
98 99 2
98 126 2
99 100 1
99 127 2
100 101 3
100 128 1
101 102 2
101 129 2
102 103 3
102 130 3
103 104 3
103 131 2
104 105 2
104 132 2
105 106 4
105 133 2
106 107 3
106 134 3
107 108 1
107 135 2
108 109 2
108 136 3
109 110 3
109 137 4
110 111 4
110 138 2
111 112 3
111 139 5
112 140 2
113 114 4
113 141 2
114 115 5
114 142 1
115 116 2
115 143 3
116 117 1
116 144 4
117 118 4
117 145 3
118 119 3
118 146 2
119 120 2
119 147 2
120 121 4
120 148 4
121 122 2
121 149 2
122 123 3
122 150 1
123 124 2
123 151 2
124 125 4
124 152 4
125 126 4
125 153 2
126 127 3
126 154 2
127 128 1
127 155 2
128 129 3
128 156 3
129 130 4
129 157 1
130 131 3
130 158 1
131 132 5
131 159 5
132 133 2
132 160 5
133 134 3
133 161 1
134 135 3
134 162 2
135 136 4
135 163 5
136 137 1
136 164 5
137 138 5
137 165 4
138 139 4
138 166 2
139 140 5
139 167 3
140 168 3
141 142 3
141 169 4
142 143 1
142 170 3
143 144 3
143 171 2
144 145 3
144 172 3
145 146 2
145 173 2
146 147 3
146 174 4
147 148 4
147 175 3
148 149 5
148 176 5
149 150 2
149 177 3
150 151 2
150 178 3
151 152 1
151 179 3
152 153 1
152 180 3
153 154 3
153 181 2
154 155 1
154 182 1
155 156 2
155 183 5
156 157 5
156 184 5
157 158 1
157 185 1
158 159 4
158 186 2
159 160 1
159 187 5
160 161 3
160 188 1
161 162 2
161 189 1
162 163 2
162 190 1
163 164 1
163 191 5
164 165 4
164 192 1
165 166 2
165 193 1
166 167 1
166 194 3
167 168 5
167 195 4
168 196 3
169 170 5
169 197 4
170 171 4
170 198 2
171 172 2
171 199 2
172 173 1
172 200 4
173 174 2
173 201 4
174 175 4
174 202 3
175 176 1
175 203 5
176 177 3
176 204 1
177 178 3
177 205 5
178 179 1
178 206 3
179 180 4
179 207 1
180 181 5
180 208 2
181 182 5
181 209 2
182 183 2
182 210 5
183 184 3
183 211 4
184 185 4
184 212 4
185 186 5
185 213 4
186 187 2
186 214 1
187 188 2
187 215 5
188 189 2
188 216 5
189 190 5
189 217 4
190 191 1
190 218 2
191 192 5
191 219 1
192 193 4
192 220 1
193 194 3
193 221 4
194 195 1
194 222 3
195 196 2
195 223 5
196 224 4
197 198 2
197 225 5
198 199 4
198 226 4
199 200 1
199 227 4
200 201 1
200 228 2
201 202 5
201 229 3
202 203 2
202 230 1
203 204 3
203 231 2
204 205 4
204 232 5
205 206 5
205 233 3
206 207 3
206 234 5
207 208 5
207 235 3
208 209 1
208 236 1
209 210 3
209 237 1
210 211 3
210 238 5
211 212 2
211 239 5
212 213 4
212 240 5
213 214 4
213 241 4
214 215 4
214 242 3
215 216 3
215 243 2
216 217 3
216 244 4
217 218 3
217 245 5
218 219 3
218 246 5
219 220 5
219 247 3
220 221 3
220 248 1
221 222 2
221 249 2
222 223 1
222 250 2
223 224 4
223 251 2
224 252 2
225 226 1
225 253 2
226 227 3
226 254 3
227 228 5
227 255 2
228 229 5
228 256 5
229 230 2
229 257 2
230 231 2
230 258 2
231 232 5
231 259 1
232 233 3
232 260 2
233 234 1
233 261 4
234 235 1
234 262 1
235 236 5
235 263 1
236 237 5
236 264 5
237 238 2
237 265 4
238 239 2
238 266 4
239 240 2
239 267 1
240 241 4
240 268 4
241 242 4
241 269 4
242 243 3
242 270 5
243 244 3
243 271 1
244 245 5
244 272 1
245 246 4
245 273 3
246 247 5
246 274 5
247 248 5
247 275 3
248 249 2
248 276 3
249 250 5
249 277 5
250 251 4
250 278 5
251 252 2
251 279 4
252 280 1
253 254 2
253 281 4
254 255 2
254 282 5
255 256 5
255 283 3
256 257 3
256 284 2
257 258 3
257 285 2
258 259 2
258 286 2
259 260 5
259 287 4
260 261 1
260 288 5
261 262 2
261 289 4
262 263 5
262 290 4
263 264 2
263 291 1
264 265 2
264 292 2
265 266 2
265 293 3
266 267 4
266 294 3
267 268 2
267 295 4
268 269 2
268 296 3
269 270 1
269 297 5
270 271 1
270 298 1
271 272 3
271 299 4
272 273 5
272 300 1
273 274 2
273 301 4
274 275 3
274 302 1
275 276 1
275 303 3
276 277 5
276 304 5
277 278 3
277 305 2
278 279 2
278 306 4
279 280 4
279 307 4
280 308 4
281 282 4
281 309 5
282 283 3
282 310 1
283 284 4
283 311 5
284 285 2
284 312 4
285 286 4
285 313 4
286 287 3
286 314 3
287 288 4
287 315 4
288 289 5
288 316 3
289 290 1
289 317 4
290 291 5
290 318 4
291 292 1
291 319 1
292 293 5
292 320 4
293 294 5
293 321 1
294 295 1
294 322 1
295 296 1
295 323 5
296 297 5
296 324 3
297 298 1
297 325 1
298 299 3
298 326 2
299 300 2
299 327 3
300 301 3
300 328 5
301 302 4
301 329 5
302 303 5
302 330 3
303 304 3
303 331 2
304 305 1
304 332 3
305 306 3
305 333 1
306 307 1
306 334 4
307 308 2
307 335 4
308 336 1
309 310 2
309 337 1
310 311 1
310 338 2
311 312 5
311 339 4
312 313 3
312 340 5
313 314 4
313 341 1
314 315 2
314 342 5
315 316 5
315 343 3
316 317 2
316 344 2
317 318 5
317 345 1
318 319 5
318 346 2
319 320 3
319 347 1
320 321 2
320 348 1
321 322 2
321 349 2
322 323 4
322 350 3
323 324 4
323 351 1
324 325 2
324 352 5
325 326 2
325 353 1
326 327 5
326 354 4
327 328 2
327 355 2
328 329 3
328 356 2
329 330 1
329 357 3
330 331 1
330 358 1
331 332 3
331 359 1
332 333 4
332 360 2
333 334 1
333 361 5
334 335 5
334 362 5
335 336 5
335 363 1
336 364 2
337 338 4
337 365 3
338 339 3
338 366 1
339 340 1
339 367 4
340 341 4
340 368 3
341 342 5
341 369 5
342 343 5
342 370 2
343 344 4
343 371 5
344 345 5
344 372 3
345 346 5
345 373 3
346 347 2
346 374 2
347 348 1
347 375 5
348 349 1
348 376 4
349 350 5
349 377 1
350 351 2
350 378 1
351 352 4
351 379 4
352 353 2
352 380 4
353 354 2
353 381 3
354 355 5
354 382 4
355 356 5
355 383 3
356 357 5
356 384 2
357 358 5
357 385 4
358 359 3
358 386 1
359 360 4
359 387 3
360 361 1
360 388 4
361 362 2
361 389 1
362 363 4
362 390 1
363 364 4
363 391 5
364 392 2
365 366 1
365 393 1
366 367 1
366 394 5
367 368 4
367 395 4
368 369 5
368 396 3
369 370 4
369 397 4
370 371 3
370 398 3
371 372 2
371 399 4
372 373 3
372 400 5
373 374 1
373 401 1
374 375 2
374 402 3
375 376 3
375 403 4
376 377 1
376 404 1
377 378 5
377 405 1
378 379 5
378 406 3
379 380 4
379 407 3
380 381 5
380 408 3
381 382 2
381 409 2
382 383 4
382 410 3
383 384 3
383 411 5
384 385 3
384 412 1
385 386 2
385 413 1
386 387 1
386 414 3
387 388 2
387 415 5
388 389 3
388 416 2
389 390 1
389 417 3
390 391 4
390 418 5
391 392 1
391 419 4
392 420 5
393 394 1
393 421 3
394 395 4
394 422 1
395 396 1
395 423 3
396 397 3
396 424 5
397 398 3
397 425 1
398 399 4
398 426 2
399 400 5
399 427 5
400 401 2
400 428 3
401 402 4
401 429 2
402 403 3
402 430 3
403 404 3
403 431 1
404 405 5
404 432 4
405 406 3
405 433 4
406 407 1
406 434 3
407 408 4
407 435 1
408 409 1
408 436 3
409 410 3
409 437 5
410 411 3
410 438 1
411 412 4
411 439 3
412 413 4
412 440 3
413 414 3
413 441 3
414 415 2
414 442 2
415 416 5
415 443 5
416 417 1
416 444 5
417 418 3
417 445 4
418 419 1
418 446 2
419 420 4
419 447 1
420 448 5
421 422 4
421 449 1
422 423 1
422 450 2
423 424 1
423 451 5
424 425 2
424 452 2
425 426 1
425 453 5
426 427 1
426 454 4
427 428 4
427 455 2
428 429 5
428 456 1
429 430 1
429 457 2
430 431 1
430 458 2
431 432 2
431 459 1
432 433 3
432 460 1
433 434 2
433 461 5
434 435 5
434 462 4
435 436 4
435 463 3
436 437 1
436 464 2
437 438 2
437 465 3
438 439 5
438 466 5
439 440 4
439 467 2
440 441 3
440 468 1
441 442 5
441 469 3
442 443 3
442 470 3
443 444 4
443 471 5
444 445 5
444 472 4
445 446 4
445 473 5
446 447 1
446 474 5
447 448 2
447 475 3
448 476 5
449 450 1
449 477 4
450 451 5
450 478 5
451 452 5
451 479 2
452 453 3
452 480 2
453 454 1
453 481 2
454 455 4
454 482 3
455 456 2
455 483 1
456 457 5
456 484 1
457 458 1
457 485 4
458 459 4
458 486 4
459 460 4
459 487 2
460 461 1
460 488 1
461 462 2
461 489 4
462 463 1
462 490 3
463 464 5
463 491 4
464 465 2
464 492 4
465 466 1
465 493 1
466 467 4
466 494 4
467 468 5
467 495 3
468 469 4
468 496 3
469 470 3
469 497 1
470 471 4
470 498 4
471 472 5
471 499 5
472 473 1
472 500 3
473 474 5
473 501 4
474 475 5
474 502 2
475 476 1
475 503 5
476 504 3
477 478 5
477 505 2
478 479 3
478 506 1
479 480 2
479 507 2
480 481 1
480 508 3
481 482 4
481 509 4
482 483 3
482 510 3
483 484 3
483 511 1
484 485 1
484 512 1
485 486 5
485 513 1
486 487 5
486 514 5
487 488 1
487 515 1
488 489 4
488 516 4
489 490 1
489 517 4
490 491 2
490 518 4
491 492 1
491 519 2
492 493 4
492 520 5
493 494 3
493 521 5
494 495 2
494 522 3
495 496 4
495 523 1
496 497 1
496 524 1
497 498 4
497 525 5
498 499 4
498 526 1
499 500 3
499 527 1
500 501 1
500 528 2
501 502 5
501 529 2
502 503 5
502 530 2
503 504 5
503 531 3
504 532 4
505 506 1
505 533 2
506 507 1
506 534 4
507 508 4
507 535 2
508 509 3
508 536 4
509 510 3
509 537 1
510 511 2
510 538 2
511 512 5
511 539 2
512 513 4
512 540 2
513 514 5
513 541 2
514 515 3
514 542 3
515 516 1
515 543 4
516 517 5
516 544 5
517 518 5
517 545 2
518 519 3
518 546 4
519 520 1
519 547 2
520 521 4
520 548 1
521 522 4
521 549 2
522 523 1
522 550 1
523 524 3
523 551 1
524 525 3
524 552 2
525 526 3
525 553 3
526 527 4
526 554 2
527 528 1
527 555 1
528 529 4
528 556 2
529 530 3
529 557 1
530 531 4
530 558 1
531 532 4
531 559 4
532 560 3
533 534 4
533 561 3
534 535 2
534 562 1
535 536 2
535 563 4
536 537 5
536 564 3
537 538 1
537 565 1
538 539 1
538 566 5
539 540 3
539 567 3
540 541 3
540 568 4
541 542 3
541 569 1
542 543 2
542 570 2
543 544 3
543 571 3
544 545 3
544 572 2
545 546 3
545 573 3
546 547 4
546 574 2
547 548 1
547 575 1
548 549 2
548 576 2
549 550 3
549 577 3
550 551 5
550 578 4
551 552 5
551 579 5
552 553 2
552 580 5
553 554 4
553 581 3
554 555 3
554 582 4
555 556 4
555 583 1
556 557 4
556 584 3
557 558 4
557 585 2
558 559 5
558 586 2
559 560 2
559 587 2
560 588 4
561 562 4
561 589 1
562 563 4
562 590 1
563 564 1
563 591 5
564 565 5
564 592 1
565 566 5
565 593 5
566 567 1
566 594 2
567 568 3
567 595 4
568 569 1
568 596 1
569 570 2
569 597 1
570 571 3
570 598 4
571 572 5
571 599 4
572 573 4
572 600 3
573 574 5
573 601 4
574 575 1
574 602 1
575 576 4
575 603 2
576 577 2
576 604 2
577 578 5
577 605 3
578 579 4
578 606 4
579 580 4
579 607 4
580 581 1
580 608 5
581 582 4
581 609 5
582 583 4
582 610 3
583 584 4
583 611 4
584 585 2
584 612 1
585 586 4
585 613 5
586 587 2
586 614 5
587 588 3
587 615 3
588 616 1
589 590 4
589 617 3
590 591 2
590 618 3
591 592 1
591 619 3
592 593 1
592 620 4
593 594 1
593 621 4
594 595 2
594 622 2
595 596 5
595 623 3
596 597 3
596 624 3
597 598 2
597 625 3
598 599 3
598 626 1
599 600 5
599 627 2
600 601 1
600 628 5
601 602 1
601 629 1
602 603 5
602 630 1
603 604 5
603 631 4
604 605 3
604 632 3
605 606 3
605 633 2
606 607 4
606 634 5
607 608 4
607 635 4
608 609 5
608 636 5
609 610 5
609 637 1
610 611 1
610 638 3
611 612 4
611 639 1
612 613 1
612 640 4
613 614 2
613 641 2
614 615 5
614 642 3
615 616 4
615 643 1
616 644 3
617 618 5
617 645 4
618 619 2
618 646 3
619 620 2
619 647 1
620 621 2
620 648 1
621 622 2
621 649 5
622 623 5
622 650 3
623 624 3
623 651 2
624 625 1
624 652 1
625 626 3
625 653 1
626 627 1
626 654 5
627 628 1
627 655 2
628 629 4
628 656 5
629 630 5
629 657 5
630 631 1
630 658 4
631 632 4
631 659 2
632 633 4
632 660 3
633 634 5
633 661 4
634 635 2
634 662 1
635 636 3
635 663 4
636 637 2
636 664 5
637 638 1
637 665 1
638 639 5
638 666 5
639 640 4
639 667 1
640 641 1
640 668 4
641 642 4
641 669 4
642 643 2
642 670 4
643 644 1
643 671 3
644 672 1
645 646 3
645 673 2
646 647 3
646 674 5
647 648 3
647 675 5
648 649 3
648 676 4
649 650 3
649 677 1
650 651 4
650 678 3
651 652 3
651 679 5
652 653 3
652 680 3
653 654 3
653 681 2
654 655 5
654 682 2
655 656 2
655 683 2
656 657 3
656 684 4
657 658 4
657 685 1
658 659 2
658 686 2
659 660 5
659 687 1
660 661 4
660 688 2
661 662 3
661 689 3
662 663 3
662 690 5
663 664 4
663 691 1
664 665 1
664 692 3
665 666 1
665 693 1
666 667 2
666 694 5
667 668 5
667 695 5
668 669 5
668 696 3
669 670 2
669 697 1
670 671 3
670 698 3
671 672 3
671 699 2
672 700 1
673 674 5
673 701 1
674 675 4
674 702 2
675 676 2
675 703 1
676 677 1
676 704 1
677 678 3
677 705 3
678 679 2
678 706 3
679 680 5
679 707 1
680 681 3
680 708 2
681 682 1
681 709 5
682 683 1
682 710 1
683 684 1
683 711 2
684 685 4
684 712 1
685 686 2
685 713 3
686 687 1
686 714 1
687 688 1
687 715 4
688 689 1
688 716 2
689 690 1
689 717 4
690 691 1
690 718 5
691 692 4
691 719 5
692 693 3
692 720 3
693 694 5
693 721 1
694 695 4
694 722 1
695 696 1
695 723 5
696 697 3
696 724 4
697 698 3
697 725 5
698 699 1
698 726 3
699 700 4
699 727 2
700 728 5
701 702 5
701 729 1
702 703 3
702 730 5
703 704 4
703 731 5
704 705 4
704 732 1
705 706 1
705 733 3
706 707 1
706 734 2
707 708 2
707 735 3
708 709 5
708 736 1
709 710 4
709 737 1
710 711 1
710 738 5
711 712 2
711 739 3
712 713 4
712 740 4
713 714 2
713 741 4
714 715 5
714 742 1
715 716 1
715 743 3
716 717 4
716 744 4
717 718 4
717 745 2
718 719 4
718 746 1
719 720 4
719 747 5
720 721 4
720 748 5
721 722 5
721 749 1
722 723 3
722 750 4
723 724 4
723 751 1
724 725 2
724 752 4
725 726 4
725 753 4
726 727 4
726 754 4
727 728 1
727 755 4
728 756 4
729 730 1
729 757 1
730 731 2
730 758 2
731 732 2
731 759 4
732 733 4
732 760 5
733 734 4
733 761 4
734 735 1
734 762 2
735 736 5
735 763 2
736 737 4
736 764 4
737 738 5
737 765 4
738 739 3
738 766 3
739 740 1
739 767 5
740 741 5
740 768 1
741 742 5
741 769 5
742 743 4
742 770 3
743 744 2
743 771 4
744 745 1
744 772 3
745 746 4
745 773 2
746 747 5
746 774 5
747 748 4
747 775 4
748 749 1
748 776 1
749 750 5
749 777 3
750 751 4
750 778 1
751 752 3
751 779 3
752 753 2
752 780 4
753 754 1
753 781 1
754 755 4
754 782 3
755 756 5
755 783 3
756 784 1
757 758 3
758 759 5
759 760 5
760 761 5
761 762 1
762 763 4
763 764 3
764 765 2
765 766 2
766 767 1
767 768 5
768 769 1
769 770 5
770 771 5
771 772 1
772 773 2
773 774 4
774 775 1
775 776 2
776 777 4
777 778 5
778 779 4
779 780 1
780 781 3
781 782 5
782 783 1
783 784 3
